language Essence 1.3
$ This is instance 1 from Regin & Puget
$ It is also included in the data.txt file.
letting n_cars be 100
letting n_classes be 22
letting n_options be 5
letting maxcars be function (1 --> 1, 2 --> 2, 3 --> 1, 4 --> 2, 5 --> 1)
letting blksize be function (1 --> 2, 2 --> 3, 3 --> 3, 4 --> 5, 5 --> 5)
letting quantity be function (1 --> 6, 2 --> 10, 3 --> 2, 4 --> 2, 5 --> 8, 6 --> 15, 7 --> 1, 8 --> 5, 9 --> 2, 10 --> 3, 11 --> 2, 12 --> 1, 13 --> 8, 14 --> 3, 15 --> 10, 16 --> 4, 17 --> 4, 18 --> 2, 19 --> 4, 20 --> 6, 21 --> 1, 22 --> 1)
letting usage be relation ((1,1),(1,4),(2,1),(2,2),(2,3),(3,1),(3,2),(3,5),(4,2),(4,3),(5,4),(6,2),(7,2),(7,3),(7,4),(8,3),(8,4),(9,1),(9,3),(9,4),(10,3),(11,1),(11,3),(12,1),(12,2),(12,3),(12,5),(13,2),(13,4),(14,1),(14,4),(14,5),(15,1),(16,2),(16,5),(17,5),(18,1),(18,5),(19,1),(19,2),(20,1),(20,2),(20,4),(21,1),(21,3),(21,5),(22,1),(22,2),(22,3),(22,4),(22,5))

